NAME : rbg048a.tw.9799.tour
COMMENT : Length = 9799
COMMENT : Found by LKH [Keld Helsgaun] Sun Sep 10 01:17:36 2017
TYPE : TOUR
DIMENSION : 49
TOUR_SECTION
1
2
3
4
5
6
12
10
7
16
15
13
11
9
14
20
8
17
18
19
21
22
23
24
26
25
28
27
29
48
30
34
31
35
36
32
33
37
49
38
39
40
42
41
43
46
45
44
47
-1
EOF
